
Gurobi 8.1.1 (mac64) logging started Sun May 31 00:57:53 2020

Changed value of parameter LogFile to gurobi_logs/2020-05-31_00:57:53-rproblem8_mode=feasibility_sdp_reduce.log
   Prev: gurobi.log  Default: 
Parameter MIPFocus unchanged
   Value: 0  Min: 0  Max: 3  Default: 0
Parameter SolutionLimit unchanged
   Value: 2000000000  Min: 1  Max: 2000000000  Default: 2000000000
Parameter LogToConsole unchanged
   Value: 1  Min: 0  Max: 1  Default: 1
Changed value of parameter TimeLimit to 10000.0
   Prev: 1e+100  Min: 0.0  Max: 1e+100  Default: 1e+100
Optimize a model with 1129 rows, 1236 columns and 2798 nonzeros
Variable types: 14 continuous, 1222 integer (107 binary)
Coefficient statistics:
  Matrix range     [1e+00, 1e+03]
  Objective range  [1e+00, 5e+00]
  Bounds range     [1e+00, 1e+00]
  RHS range        [1e+00, 6e+00]
Found heuristic solution: objective 114.0000000
Presolve removed 1129 rows and 1236 columns
Presolve time: 0.00s
Presolve: All rows and columns removed

Explored 0 nodes (0 simplex iterations) in 0.00 seconds
Thread count was 1 (of 8 available processors)

Solution count 2: 102 114 

Optimal solution found (tolerance 1.00e-04)
Best objective 1.020000000000e+02, best bound 1.020000000000e+02, gap 0.0000%

Gurobi 8.1.1 (mac64) logging started Sun May 31 00:57:53 2020

Changed value of parameter LogFile to gurobi_logs/2020-05-31_00:57:53-rproblem8_mode=feasibility_sdp_reduce.log
   Prev: gurobi.log  Default: 
Parameter MIPFocus unchanged
   Value: 0  Min: 0  Max: 3  Default: 0
Parameter SolutionLimit unchanged
   Value: 2000000000  Min: 1  Max: 2000000000  Default: 2000000000
Parameter LogToConsole unchanged
   Value: 1  Min: 0  Max: 1  Default: 1
Changed value of parameter TimeLimit to 10000.0
   Prev: 1e+100  Min: 0.0  Max: 1e+100  Default: 1e+100
Optimize a model with 13241 rows, 9263 columns and 224149 nonzeros
Variable types: 13 continuous, 9250 integer (8242 binary)
Coefficient statistics:
  Matrix range     [1e+00, 9e+01]
  Objective range  [1e+00, 1e+00]
  Bounds range     [1e+00, 1e+00]
  RHS range        [1e+00, 9e+01]
Presolve removed 9878 rows and 5515 columns
Presolve time: 0.60s
Presolved: 3363 rows, 3748 columns, 35556 nonzeros
Variable types: 0 continuous, 3748 integer (3748 binary)

Root relaxation: objective 8.340000e+02, 752 iterations, 0.03 seconds

    Nodes    |    Current Node    |     Objective Bounds      |     Work
 Expl Unexpl |  Obj  Depth IntInf | Incumbent    BestBd   Gap | It/Node Time

H    0     0                     834.0000000    0.00000   100%     -    0s
     0     0          -    0       834.00000  834.00000  0.00%     -    0s

Explored 0 nodes (974 simplex iterations) in 0.71 seconds
Thread count was 8 (of 8 available processors)

Solution count 1: 834 

Optimal solution found (tolerance 1.00e-04)
Best objective 8.340000000000e+02, best bound 8.340000000000e+02, gap 0.0000%
